9321
9238
9238
9238
9238
8909
8458
8458
8458
8458
8458
8458
8458
8458
8458
8194
8194
8194
8194
8194
7894
7894
7894
7894
7894
7894
7894
7894
7894
7894
7894
7894
7894
7894
7894
7894
7894
7894
7894
7894
7894
7894
7894
7894
7894
7894
7894
7894
7894
7894
7894
7894
7894
7894
7894
7894
7894
7894
7894
7894
7894
7894
7894
7894
7894
7894
7894
7894
7894
7894
7894
7894
7894
7894
7894
7894
7894
7894
7894
7894
7894
7894
7894
7894
7894
7894
7894
7894
7894
7894
7894
7894
7894
7894
7894
7894
7894
7894
7894
7894
7894
7894
7894
7894
7894
7894
7894
7894
7894
7894
7894
7894
7894
7894
7894
7894
7894
7894
7894
7894
7894
7894
7894
7894
7894
7894
7894
7894
7894
7894
7894
7894
7894
7894
7894
7894
7894
7894
7894
7894
7894
7894
7894
7894
7894
7894
7894
7894
7894
7894
7894
7894
7894
7894
7894
7894
7894
7894
7894
7894
7894
7894
7894
7894
7894
7894
7894
7894
7894
7894
7894
7894
7894
7894
7894
7894
7894
7894
7894
7894
7894
7894
7894
7894
7894
7894
7894
7894
7894
7894
7894
7894
7894
7894
7894
7894
7894
7894
7894
7894
7894
7894
7894
7894
7894
7894
7894
7894
7894
7894
7894
7894
7894
7894
7894
7894
7894
7894
7894
7894
7894
7894
7894
7894
7894
7894
7894
7894
7894
7894
7894
7894
7894
7894
7894
7894
7894
7894
7894
7894
7894
7894
7894
7894
7894
7894
7894
7894
7894
7894
7894
7894
7894
7894
7894
7894
7894
7894
7894
7894
7894
7894
7894
7894
7894
7894
7894
7894
7894
7894
7894
7894
7894
7894
7894
7894
7894
7894
7894
7894
7894
7894
7894
7894
7894
7894
7894
7894
7894
7894
7894
7894
7894
7894
7894
7894
7894
7894
7894
7894
7894
7894
7894
7894
7894
7894
7894
7894
7894
7894
7894
7894
7894
7894
7894
7894
7894
7894
7894
7894
7894
7894
7894
7894
7894
7894
7894
7894
7894
7894
7894
7894
7894
7894
7894
7894
7894
7894
7894
7894
7894
7894
7894
7894
7894
7894
7894
7894
7894
7894
7894
7381
7381
7381
7381
7381
7381
7381
7381
7381
7381
7381
7381
7381
7381
7381
7381
7381
7381
7381
7381
7381
7381
7381
7381
7381
7381
7381
7381
7381
7381
7381
7381
7381
7381
7381
7381
7381
7381
7381
7381
7381
7381
7381
7381
7381
7381
7381
7381
7381
7381
7381
7381
7381
7381
7381
7381
7381
7381
7381
7381
7381
7381
7381
7381
7381
7381
7381
7381
7381
7381
7381
7381
7381
7381
7381
7381
7381
7381
7381
7381
7381
7381
7381
7381
7381
7381
7381
7381
7381
7381
7381
7381
7381
7381
7381
7381
7381
7381
7381
7381
7381
7381
7381
7381
7381
7381
7381
7381
7381
7381
7381
7381
7381
7381
7381
7381
7381
7381
7381
7381
7381
7381
7381
7381
7381
7381
7381
7381
7381
7381
7381
7381
7381
7381
7381
7381
7381
7381
7381
7381
7381
7381
7381
7381
7381
7381
7381
7381
7381
7381
7381
7381
7381
7381
7381
7381
7381
7381
7381
7381
7381
7381
7381
7381
7381
7381
7381
7381
7381
7381
7381
7381
7381
7381
7381
7381
7381
7381
7381
7381
7381
7381
7381
7381
7381
7381
7381
7381
7381
7381
7381
7381
7381
7381
7381
7381
7381
7381
7381
7381
7381
7381
7381
7381
7381
7381
7381
7381
7381
7381
7381
7381
7381
7381
7381
7381
7381
7381
7381
7381
7381
7381
7381
7381
7381
7381
7381
7381
7381
7381
7381
7381
7381
7381
7381
7381
7381
7381
7381
7381
7381
7381
7381
7381
7381
7381
7381
7381
7381
7381
7381
7381
7381
7381
7381
7381
7381
7381
7381
7381
7381
7381
7381
7381
7381
7381
7381
7381
7381
7381
7381
7381
7381
7381
7381
7381
7381
7381
7381
7381
7381
7381
7381
7381
7381
7381
7381
7381
7381
7381
7381
7381
7381
7381
7381
7381
7381
7381
7381
7381
7381
7381
7381
7381
7381
7381
7381
7381
7381
7381
7381
7381
7381
7381
7381
7381
7381
7381
7381
7381
7381
7381
7381
7381
7381
7381
7381
7381
7381
7381
7381
7381
7381
7381
7381
7381
7381
7381
7381
7381
7381
7381
7381
7381
7381
7381
7381
7381
7381
7381
7381
7381
7381
7381
7381
7381
7381
7381
7381
7381
7381
7381
7381
7381
7381
7381
7381
7381
7381
7381
7381
7381
7381
7381
7381
7381
7381
7381
7381
7381
7381
7381
7381
7381
7381
7381
7381
7381
7381
7381
7381
7381
7381
7381
7381
7381
7381
7381
7381
7381
7381
7381
7381
7381
7381
7381
7381
7381
7381
7381
7381
7381
7381
7381
7381
7381
7381
7381
7381
7381
7381
7381
7381
7381
7381
7381
7381
7381
7381
7381
7381
7381
7381
7381
7381
7381
7381
7381
7381
7381
7381
7381
7381
7381
7381
7381
7381
7381
7381
7381
7381
7381
7381
7381
7381
7381
7381
7381
7381
7381
7381
7381
7381
7381
7381
7381
7381
7381
7381
7381
7381
7381
7381
7381
7381
7381
7381
7381
7381
7381
7381
7381
7381
7381
7381
7381
7381
7381
7381
7381
7381
7381
7381
7381
7381
7381
7381
7381
7381
7381
7381
7381
7381
7381
7381
7381
7381
7381
7381
7381
7381
7381
7381
7381
7381
7381
7381
7381
7381
7381
7381
7381
7381
7381
7381
7381
7381
7381
7381
7381
7381
7381
7381
7381
7381
7381
7381
7381
7381
7381
7381
7381
7381
7381
7381
7381
7381
7381
7381
7381
7381
7381
7381
7381
7381
7381
7381
7381
7381
7381
7381
7381
7381
7381
7381
7381
7381
7381
7381
7381
7381
7381
7381
7381
7381
7381
7381
7381
7381
7381
7381
7381
7381
7381
7381
7381
7381
7381
7381
7381
7381
7381
7381
7381
7381
7381
7381
7381
7381
7381
7381
7381
7381
7381
7381
7381
7381
7381
7381
7381
7381
7381
7381
7381
7381
7381
7381
7381
7381
7381
7381
7381
7381
7381
7381
7381
7381
7381
7381
7381
7381
7381
7381
7381
7381
7381
7381
7381
7381
7381
7381
7381
7381
7381
7381
7381
7381
7381
7381
7381
7381
7381
7381
7381
7381
7381
7381
7381
7381
7381
7381
7381
7381
7381
7381
7381
7381
7381
7381
7381
7381
7381
7381
7381
7381
7381
7381
7381
7381
7381
7381
7381
7381
7381
7381
7381
7381
7381
7381
7381
7381
7381
7381
7381
7381
7381
7381
7381
7381
7381
7381
7381
7381
7381
7381
7381
7381
7381
7381
7381
7381
7381
7381
7381
7381
7381
7381
7381
7381
7381
7381
7381
7381
7381
7381
7381
7381
7381
7381
7381
7381
7381
7381
7381
7381
7381
7381
7381
7381
7381
7381
7381
7381
7381
7381
7381
7381
7381
7381
7381
7381
7381
7381
7381
7381
7381
7381
7381
7381
7381
7381
7381
7381
7381
7381
7381
7381
7381
7381
7381
7381
7381
7381
7381
7381
7381
7381
7381
7381
7381
7381
7381
7381
7381
7381
7381
7381
7381
7381
7381
7381
7381
7381
7381
7381
7381
7381
7381
7381
7381
7381
7381
7381
7381
7381
7381
7381
7381
7381
7381
7381
7381
7381
7381
7381
7381
7381
7381
7381
7381
7381
7381
7381
7381
7381
7381
7381
7381
7381
7381
7381
7381
7381
7381
7381
7381
7381
7381
7381
7381
7381
7381
7381
7381
7381
7381
7381
7381
7381
7381
7381
7381
7381
7381
7381
7381
7381
7381
7381
7381
7381
7381
7381
7381
7381
7381
7381
7381
7381
7381
7381
7381
7381
7381
7381
7381
7381
7381
7381
7381
7381
7381
7381
7381
7381
7381
7381
7381
7381
7381
7381
7381
7381
7381
7381
7381
7381
7381
7381
7381
7381
7381
7381
7381
7381
7381
7381
7381
7381
7381
7381
7381
7381
7381
7381
7381
7381
7381
7381
7381
7381
7381
7381
7381
7381
7381
7381
7381
7381
7381
7381
7381
7381
7381
7381
7381
7381
7381
7381
7381
7381
7381
7381
7381
7381
7381
7381
7381
7381
7381
7381
7381
7381
7381
7381
7381
7381
7381
7381
7381
7381
7381
7381
7381
7381
7381
7381
7381
7381
7381
7381
7381
7381
7381
7381
7381
7381
7381
7381
7381
7381
7381
7381
7381
7381
7381
7381
7381
7381
7381
7381
7381
7381
7381
7381
7381
7381
7381
7381
7381
7381
7381
7381
7381
7381
7381
7381
7381
7381
7381
7381
7381
7381
7381
7381
7381
7381
7381
7381
7381
7381
7381
7381
7381
7381
7381
7381
7381
7381
7381
7381
7381
7381
7381
7381
7381
7381
7381
7381
7381
7381
7381
7381
7381
7381
7381
7381
7381
7381
7381
7381
7381
7381
7381
7381
7381
7381
7381
7381
7381
7381
7381
7381
7381
7381
7381
7381
7381
7381
7381
7381
7381
7381
7381
7381
7381
7381
7381
7381
7381
7381
7381
7381
7381
7381
7381
7381
7381
7381
7381
7381
7381
7381
7381
7381
7381
7381
7381
7381
7381
7381
7381
7381
7381
7381
7381
7381
7381
7381
7381
7381
7381
7381
7381
7381
7381
7381
7381
7381
7381
7381
7381
7381
7381
7381
7381
7381
7381
7381
7381
7381
7381
7381
7381
7381
7381
7381
7381
7381
7381
7381
7381
7381
7381
7381
7381
7381
7381
7381
7381
7381
7381
7381
7381
7381
7381
7381
7381
7381
7381
7381
7381
7381
7381
7381
7381
7381
7381
7381
7381
7381
7381
7381
7381
7381
7381
7381
7381
7381
7381
7381
7381
7381
7381
7381
7381
7381
7381
7381
7381
7381
7381
7381
7381
7381
7381
7381
7381
7381
7381
7381
7381
7381
7381
7381
7381
7381
7381
7381
7381
7381
7381
7381
7381
7381
7381
7381
7381
7381
7381
7381
7381
7381
7381
7381
7381
7381
7381
7381
7381
7381
7381
7381
7381
7381
7381
7381
7381
7381
7381
7381
7381
7381
7381
7381
7381
7381
7381
7381
7381
7381
7381
7381
7381
7381
7381
7381
7381
7381
7381
7381
7381
7381
7381
7381
7381
7381
7381
7381
7381
7381
7381
7381
7381
7381
7381
7381
7381
7381
7381
7381
7381
7381
7381
7381
7381
7381
7381
7381
7381
7381
7381
7381
7381
7381
7381
7381
7381
7381
7381
7381
7381
7381
7381
7381
7381
7381
7381
7381
7381
7381
7381
7381
7381
7381
7381
7381
7381
7381
7381
7381
7381
7381
7381
7381
7381
7381
7381
7381
7381
7381
7381
7381
7381
7381
7381
7381
7381
7381
7381
7381
7381
7381
7381
7381
7381
7381
7381
7381
7381
7381
7381
7381
7381
7381
7381
7381
7381
7381
7381
7381
7381
7381
7381
7381
7381
7381
7381
7381
7381
7381
7381
7381
7381
7381
7381
7381
7381
7381
7381
7381
7381
7381
7381
7381
7381
7381
7381
7381
7381
7381
7381
7381
7381
7381
7381
7381
7381
7381
7381
7381
7381
7381
7381
7381
7381
7381
7381
7381
7381
7381
7381
7381
7381
7381
7381
7381
7381
7381
7381
7381
7381
7381
7381
7381
7381
7381
7381
7381
7381
7381
7381
7381
7381
7381
7381
7381
7381
7381
7381
7381
7381
7381
7381
7381
7381
7381
7381
7381
7381
7381
7381
7381
7381
7381
7381
7381
7381
7381
7381
7381
7381
7381
7381
7381
7381
7381
7381
7381
7381
7381
7381
7381
7381
7381
7381
7381
7381
7381
7381
7381
7381
7381
7381
7381
7381
7381
7381
7381
7381
7381
7381
7381
7381
7381
7381
7381
7381
7381
7381
7381
7381
7381
7381
7381
7381
7381
7381
7381
7381
7381
7381
7381
7381
7381
7381
7381
7381
7381
7381
7381
7381
7381
7381
7381
7381
7381
7381
7381
7381
7381
7381
7381
7381
7381
7381
7381
7381
7381
7381
7381
7381
7381
7381
7381
7381
7381
7381
7381
7381
7381
7381
7381
7381
7381
7381
7381
7381
7381
7381
7381
7381
7381
7381
7381
7381
7381
7381
7381
7381
7381
7381
7381
7381
7381
7381
7381
7381
7381
7381
7381
7381
7381
7381
7381
7381
7381
7381
7381
7381
7381
7381
7381
7381
7381
7381
7381
7381
7381
7381
7381
7381
7381
7381
7381
7381
7381
7381
7381
7381
7381
7381
7381
7381
7381
7381
7381
7381
7381
7381
7381
7381
7381
7381
7381
7381
7381
7381
7381
7381
7381
7381
7381
7381
7381
7381
7381
7381
7381
7381
7381
7381
7381
7381
7381
7381
7381
7381
